Route #1: 1 19 45 36 24 44 32 13 23 33 1
Route #2: 1 21 27 40 9 16 28 4 8 1
Route #3: 1 15 18 48 17 29 35 10 25 30 1
Route #4: 1 42 3 11 34 47 22 1
Route #5: 1 37 41 46 43 12 5 14 31 1
Route #6: 1 38 20 26 39 7 1
Route #7: 1 2 6 1
cost 1292.972314798381